* UNK main file generated by charmmgen
* author: Victor Bazterra 2004 CHPC
* 

Read rtf card name ligand_CHARMM.rtf

Read param card name ligand_CHARMM.prm

Read sequence card
* Reading the coordinates of residue
* 
    1
UNK
Generate UNK setup
Read coor card free
* Residues coordinate
* 
   77
    1    1 UNK  O1    -0.48700   7.76200   5.48400
    2    1 UNK  O2    -3.49400  10.35200   6.91700
    3    1 UNK  O3     1.39000   5.03700   5.46300
    4    1 UNK  O4    -0.89700   3.06800   0.81300
    5    1 UNK  O5    -0.72300   1.56600   5.29900
    6    1 UNK  O6     0.31200  -0.33100   4.77400
    7    1 UNK  N7    -2.11500   8.70100   7.60300
    8    1 UNK  N8     1.25100   4.80000   3.22300
    9    1 UNK  N9    -1.30500   5.66200   5.80800
   10    1 UNK  N10   -0.07600   2.41300   2.82200
   11    1 UNK  N11   -4.50700   6.98400   6.42300
   12    1 UNK  N12   -3.80900  -1.13900   5.20500
   13    1 UNK  N13   -3.28800  -0.28700   7.31300
   14    1 UNK  N14   -4.09000  -2.45800   7.05500
   15    1 UNK  C15   -1.58100   7.32500   7.58800
   16    1 UNK  C16   -0.33800   7.35000   8.49800
   17    1 UNK  C17    0.54400   4.62300   1.93800
   18    1 UNK  C18   -0.10600   8.80100   8.91700
   19    1 UNK  C19   -1.22700   9.63100   8.29500
   20    1 UNK  C20    1.64500   4.60200   0.85600
   21    1 UNK  C21    2.93700   5.01300   1.53700
   22    1 UNK  C22    2.69200   4.92000   3.03600
   23    1 UNK  C23   -1.09800   6.93900   6.17700
   24    1 UNK  C24   -3.32700   9.15300   7.18100
   25    1 UNK  C25   -4.59000   8.24300   7.18700
   26    1 UNK  C26    0.69700   4.95000   4.45100
   27    1 UNK  C27   -0.22600   3.28700   1.81800
   28    1 UNK  C28   -0.84200   5.05100   4.56900
   29    1 UNK  C29   -5.15200   8.08000   8.63900
   30    1 UNK  C30   -0.48300   1.02600   2.98600
   31    1 UNK  C31   -4.44400   7.03400   9.52400
   32    1 UNK  C32   -6.68000   7.87600   8.70200
   33    1 UNK  C33   -1.91100   0.74400   2.44500
   34    1 UNK  C34   -2.70400  -0.39800   3.11900
   35    1 UNK  C35   -0.29700   0.72100   4.47800
   36    1 UNK  C36   -3.54200   0.01800   4.35200
   37    1 UNK  C37   -3.73600  -1.27600   6.52900
   38    1 UNK  H38   -2.30700   6.59500   7.94500
   39    1 UNK  H39   -0.51100   6.71600   9.37100
   40    1 UNK  H40    0.56500   6.96300   8.01400
   41    1 UNK  H41   -0.12400   5.46700   1.75800
   42    1 UNK  H42    0.88300   9.17900   8.63100
   43    1 UNK  H43   -0.16300   8.87100  10.01400
   44    1 UNK  H44   -0.80500  10.34500   7.58300
   45    1 UNK  H45   -1.76800  10.20400   9.05900
   46    1 UNK  H46    1.79900   3.60800   0.43200
   47    1 UNK  H47    1.39300   5.26200   0.02900
   48    1 UNK  H48    3.11600   6.05300   1.27600
   49    1 UNK  H49    3.80200   4.42900   1.22000
   50    1 UNK  H50    3.10300   5.78500   3.55700
   51    1 UNK  H51    3.16500   4.02800   3.44000
   52    1 UNK  H52   -5.33700   8.83500   6.64600
   53    1 UNK  H53   -1.24600   5.63400   3.73700
   54    1 UNK  H54   -1.28400   4.06000   4.51200
   55    1 UNK  H55   -4.99900   9.04700   9.12800
   56    1 UNK  H56   -1.77900   5.03900   6.44500
   57    1 UNK  H57    0.45800   2.74400   3.61400
   58    1 UNK  H58    0.23000   0.41600   2.45000
   59    1 UNK  H59   -4.46700   6.04300   9.08200
   60    1 UNK  H60   -3.41100   7.30900   9.72800
   61    1 UNK  H61   -4.92700   6.95200  10.49700
   62    1 UNK  H62   -6.97700   6.86600   8.42100
   63    1 UNK  H63   -7.04600   8.03200   9.73000
   64    1 UNK  H64   -7.19800   8.58200   8.06100
   65    1 UNK  H65   -4.41300   7.12200   5.41800
   66    1 UNK  H66   -3.74900   6.37900   6.71600
   67    1 UNK  H67   -1.81100   0.48000   1.39900
   68    1 UNK  H68   -2.48600   1.65700   2.42300
   69    1 UNK  H69   -2.03600  -1.22900   3.35300
   70    1 UNK  H70   -3.39500  -0.80300   2.37800
   71    1 UNK  H71   -4.48900   0.44300   4.02200
   72    1 UNK  H72   -3.05200   0.78800   4.93800
   73    1 UNK  H73   -3.26000  -0.38000   8.31900
   74    1 UNK  H74   -2.93000   0.55900   6.88900
   75    1 UNK  H75   -4.39900  -3.20600   6.45400
   76    1 UNK  H76   -3.96900  -2.65600   8.03700
   77    1 UNK  H77   -4.03900  -1.97900   4.62500
Energy ihbfrq 0 inbfrq -1
Open write card unit 14 name tmp.out
Write energy card unit 14
* UNK energy before the optimization
* 
Minimise Abnr Nstep 5000 Tolgrd 0.00001
Write energy card unit 14
* UNK energy after optimization
* 
Write coor card unit 14
* UNK energy after optimization
* 
